78 10 
26 23 
83 47 
94 55 
20 98 
81 56 
45 50 
0 15 
63 52 
64 84 
64 59 
94 41 
13 80 
56 91 
63 91 
39 41 
54 65 
16 37 
65 10 
92 37 
60 26 
45 6 
28 46 
73 43 
98 89 
79 14 
0 73 
56 13 
5 64 
4 20 
8 95 
13 14 
12 29 
51 77 
91 95 
66 4 
73 12 
10 2 
10 35 
97 60 
24 77 
75 24 
50 83 
37 8 
47 93 
28 7 
40 42 
21 52 
71 24 
82 15 
